webassembly/ejemplos_dzn/folder15_json_59.dzn
TERM = { '.', 's(5)', 'in_1', 'in_6', 'in_0', 's(4)', 'in_3', 's(1)', 's(7)', 's(2)', 'in_2', 'in_8', 's(6)', 's(8)', 's(0)', 's(3)', 'local_1', 'in_4', 'in_7', 'in_5'};
null = '.';
s = 15;
n = 14;
ndeps = 6;
max_registers_sz = 4;
NR = 1;
registers = [|'local_1', 's(6)'|];
dependencies = [|'i32.store8_0', 'i32.load16_u_1', |'i32.load16_u_1', 'i32.store_7', |'i32.store_7', 'i32.load16_u_8', |'i32.store_7', 'i32.load16_u_11', |'i32.store_7', 'i32.load16_u_13', |'i32.store_7', 'i32.load8_s_14'|];
GET_ENUM = { GET1, GET2, GET3, GET4, GET5};
SET_ENUM = { SET1, SET2, SET3, SET4, SET5};
TEE_ENUM = { TEE1, TEE2, TEE3, TEE4, TEE5};
N = 11;
OP = { 'i32.store8_0', 'i32.load16_u_1', 'i32.sub_0', 'i32.sub_1', 'i32.add_0', 'i32.store_7', 'i32.load16_u_8', 'i32.load16_u_11', 'i32.sub_2', 'i32.load16_u_13', 'i32.load8_s_14' };
in_ops = [2, 1, 2, 2, 2, 2, 1, 1, 2, 1, 1 ];
out_ops = [0, 1, 1, 1, 1, 0, 1, 1, 1, 1, 1 ];
in1 = ['in_0', 'in_2', 's(0)', 's(1)', 's(2)', 's(3)', 'in_7', 's(0)', 's(4)', 's(5)', 's(7)' ];
in2 = ['in_1', '.', 'in_3', 'in_4', 'in_5', 'in_6', '.', '.', 'in_8', '.', '.' ];
in3 = ['.', '.', '.', '.', '.', '.', '.', '.', '.', '.', '.' ];
out1 = ['.', 's(0)', 's(1)', 's(2)', 's(3)', '.', 's(4)', 's(6)', 's(5)', 's(7)', 's(8)' ];
out2 = ['.', '.', '.', '.', '.', '.', '.', '.', '.', '.', '.' ];
out3 = ['.', '.', '.', '.', '.', '.', '.', '.', '.', '.', '.' ];
comm = [false, false, false, false, true, false, false, false, false, false, false ];
gas = [1, 1, 1, 1, 1, 1, 1, 1, 1, 1, 1 ];
sz = [1, 1, 1, 1, 1, 1, 1, 1, 1, 1, 1 ];
stor = [true, false, false, false, false, true, false, false, false, false, false ];
lb = [ 1, 1, 1, 1, 1, 1, 1, 1, 1, 1, 1 ];
ub = [ 15, 15, 15, 15, 15, 15, 15, 15, 15, 15, 15 ];
startstack = [ 'in_0', 'in_1', 'in_2', 'in_3', 'in_4', 'in_5', 'in_6', 'in_7', 'in_8', null, null, null, null, null ];
endstack = [ 's(8)', null, null, null, null, null, null, null, null, null, null, null, null, null ];
