webassembly/ejemplos_results/folder15_json_59.txt
value = 15;
fgas = [1, 1, 1, 1, 1, 1, 1, 1, 1, 2, 1, 1, 1, 1, 1];
fsize = [1, 1, 1, 1, 1, 1, 1, 1, 1, 1, 1, 1, 1, 1, 1];
states = 
[|   in_0, in_1, in_2, in_3, in_4, in_5, in_6, in_7, in_8, '.', '.', '.', '.', '.'
 | 's(7)', in_3, in_4, in_5, in_6, in_7, in_8,  '.',  '.', '.', '.', '.', '.', '.'
 | 's(8)', in_2, in_4, in_5, in_6, in_7, in_8,  '.',  '.', '.', '.', '.', '.', '.'
 |   in_2, in_4, in_5, in_6, in_7, in_8,  '.',  '.',  '.', '.', '.', '.', '.', '.'
 | 's(0)', in_5, in_5, in_6, in_7, in_8,  '.',  '.',  '.', '.', '.', '.', '.', '.'
 | 's(6)', in_7, in_5, in_6, in_7, in_8,  '.',  '.',  '.', '.', '.', '.', '.', '.'
 |   in_7, in_5, in_6, in_7, in_8,  '.',  '.',  '.',  '.', '.', '.', '.', '.', '.'
 | 's(4)', in_8, in_6, in_7, in_8,  '.',  '.',  '.',  '.', '.', '.', '.', '.', '.'
 | 's(5)', in_5, in_7, in_8,  '.',  '.',  '.',  '.',  '.', '.', '.', '.', '.', '.'
 | 's(7)', in_2, in_7, in_8,  '.',  '.',  '.',  '.',  '.', '.', '.', '.', '.', '.'
 |   in_2, in_7, in_8,  '.',  '.',  '.',  '.',  '.',  '.', '.', '.', '.', '.', '.'
 | 's(0)', in_3, in_8,  '.',  '.',  '.',  '.',  '.',  '.', '.', '.', '.', '.', '.'
 | 's(1)', in_4,  '.',  '.',  '.',  '.',  '.',  '.',  '.', '.', '.', '.', '.', '.'
 | 's(2)', in_5,  '.',  '.',  '.',  '.',  '.',  '.',  '.', '.', '.', '.', '.', '.'
 | 's(3)', in_6,  '.',  '.',  '.',  '.',  '.',  '.',  '.', '.', '.', '.', '.', '.'
 | 's(8)',  '.',  '.',  '.',  '.',  '.',  '.',  '.',  '.', '.', '.', '.', '.', '.'
 |];
register_states = 
[| local_1, '.', '.', '.', '.'
 | local_1, '.', '.', '.', '.'
 | local_1, '.', '.', '.', '.'
 |  's(8)', '.', '.', '.', '.'
 |  's(8)', '.', '.', '.', '.'
 |  's(8)', '.', '.', '.', '.'
 |  's(6)', '.', '.', '.', '.'
 |  's(6)', '.', '.', '.', '.'
 |  's(6)', '.', '.', '.', '.'
 |  's(6)', '.', '.', '.', '.'
 |  's(6)', '.', '.', '.', '.'
 |  's(6)', '.', '.', '.', '.'
 |  's(6)', '.', '.', '.', '.'
 |  's(6)', '.', '.', '.', '.'
 |  's(6)', '.', '.', '.', '.'
 |  's(6)', '.', '.', '.', '.'
 |];
program = [O('i32.store8_0'), O('i32.load8_s_14'), S(SET1), O('i32.load16_u_1'), O('i32.load16_u_11'), S(SET1), O('i32.load16_u_8'), O('i32.sub_2'), O('i32.load16_u_13'), POP, O('i32.load16_u_1'), O('i32.sub_0'), O('i32.sub_1'), O('i32.add_0'), O('i32.store_7')];
% time elapsed: 0.78 s
----------
value = 14;
fgas = [1, 1, 1, 1, 1, 1, 1, 1, 1, 2, 1, 1, 1, 1, 0];
fsize = [1, 1, 1, 1, 1, 1, 1, 1, 1, 1, 1, 1, 1, 1, 1];
states = 
[|   in_0, in_1, in_2, in_3, in_4, in_5, in_6, in_7, in_8, '.', '.', '.', '.', '.'
 | 's(0)', in_3, in_4, in_5, in_6, in_7, in_8,  '.',  '.', '.', '.', '.', '.', '.'
 | 's(1)', in_4, in_5, in_6, in_7, in_8,  '.',  '.',  '.', '.', '.', '.', '.', '.'
 | 's(2)', in_5, in_6, in_7, in_8,  '.',  '.',  '.',  '.', '.', '.', '.', '.', '.'
 | 's(3)', in_6, in_7, in_8,  '.',  '.',  '.',  '.',  '.', '.', '.', '.', '.', '.'
 | 's(0)', in_8,  '.',  '.',  '.',  '.',  '.',  '.',  '.', '.', '.', '.', '.', '.'
 | 's(6)', in_2,  '.',  '.',  '.',  '.',  '.',  '.',  '.', '.', '.', '.', '.', '.'
 |   in_2,  '.',  '.',  '.',  '.',  '.',  '.',  '.',  '.', '.', '.', '.', '.', '.'
 | 's(0)', in_3,  '.',  '.',  '.',  '.',  '.',  '.',  '.', '.', '.', '.', '.', '.'
 | 's(1)', in_7,  '.',  '.',  '.',  '.',  '.',  '.',  '.', '.', '.', '.', '.', '.'
 |   in_7,  '.',  '.',  '.',  '.',  '.',  '.',  '.',  '.', '.', '.', '.', '.', '.'
 | 's(4)', in_8,  '.',  '.',  '.',  '.',  '.',  '.',  '.', '.', '.', '.', '.', '.'
 | 's(5)', in_5,  '.',  '.',  '.',  '.',  '.',  '.',  '.', '.', '.', '.', '.', '.'
 | 's(7)', in_5,  '.',  '.',  '.',  '.',  '.',  '.',  '.', '.', '.', '.', '.', '.'
 | 's(8)',  '.',  '.',  '.',  '.',  '.',  '.',  '.',  '.', '.', '.', '.', '.', '.'
 | 's(8)',  '.',  '.',  '.',  '.',  '.',  '.',  '.',  '.', '.', '.', '.', '.', '.'
 |];
register_states = 
[| local_1, '.', '.', '.', '.'
 | local_1, '.', '.', '.', '.'
 | local_1, '.', '.', '.', '.'
 | local_1, '.', '.', '.', '.'
 | local_1, '.', '.', '.', '.'
 | local_1, '.', '.', '.', '.'
 | local_1, '.', '.', '.', '.'
 |  's(6)', '.', '.', '.', '.'
 |  's(6)', '.', '.', '.', '.'
 |  's(6)', '.', '.', '.', '.'
 |  's(6)', '.', '.', '.', '.'
 |  's(6)', '.', '.', '.', '.'
 |  's(6)', '.', '.', '.', '.'
 |  's(6)', '.', '.', '.', '.'
 |  's(6)', '.', '.', '.', '.'
 |  's(6)', '.', '.', '.', '.'
 |];
program = [O('i32.store8_0'), O('i32.sub_0'), O('i32.sub_1'), O('i32.add_0'), O('i32.store_7'), O('i32.load16_u_11'), S(SET1), O('i32.load16_u_1'), O('i32.sub_0'), POP, O('i32.load16_u_8'), O('i32.sub_2'), O('i32.load16_u_13'), O('i32.load8_s_14'), NOP];
% time elapsed: 0.80 s
----------
value = 13;
fgas = [1, 1, 1, 1, 1, 1, 2, 1, 1, 1, 1, 1, 1, 0, 0];
fsize = [1, 1, 1, 1, 1, 1, 1, 1, 1, 1, 1, 1, 1, 1, 1];
states = 
[|   in_0, in_1, in_2, in_3, in_4, in_5, in_6, in_7, in_8, '.', '.', '.', '.', '.'
 | 's(0)', in_3, in_4, in_5, in_6, in_7, in_8,  '.',  '.', '.', '.', '.', '.', '.'
 | 's(6)', in_7, in_4, in_5, in_6, in_7, in_8,  '.',  '.', '.', '.', '.', '.', '.'
 |   in_7, in_4, in_5, in_6, in_7, in_8,  '.',  '.',  '.', '.', '.', '.', '.', '.'
 | 's(4)', in_8, in_5, in_6, in_7, in_8,  '.',  '.',  '.', '.', '.', '.', '.', '.'
 | 's(5)', in_7, in_6, in_7, in_8,  '.',  '.',  '.',  '.', '.', '.', '.', '.', '.'
 | 's(7)', in_2, in_6, in_7, in_8,  '.',  '.',  '.',  '.', '.', '.', '.', '.', '.'
 |   in_2, in_6, in_7, in_8,  '.',  '.',  '.',  '.',  '.', '.', '.', '.', '.', '.'
 | 's(0)', in_3, in_7, in_8,  '.',  '.',  '.',  '.',  '.', '.', '.', '.', '.', '.'
 | 's(1)', in_4, in_8,  '.',  '.',  '.',  '.',  '.',  '.', '.', '.', '.', '.', '.'
 | 's(2)', in_5,  '.',  '.',  '.',  '.',  '.',  '.',  '.', '.', '.', '.', '.', '.'
 | 's(3)', in_6,  '.',  '.',  '.',  '.',  '.',  '.',  '.', '.', '.', '.', '.', '.'
 | 's(7)',  '.',  '.',  '.',  '.',  '.',  '.',  '.',  '.', '.', '.', '.', '.', '.'
 | 's(8)',  '.',  '.',  '.',  '.',  '.',  '.',  '.',  '.', '.', '.', '.', '.', '.'
 | 's(8)',  '.',  '.',  '.',  '.',  '.',  '.',  '.',  '.', '.', '.', '.', '.', '.'
 | 's(8)',  '.',  '.',  '.',  '.',  '.',  '.',  '.',  '.', '.', '.', '.', '.', '.'
 |];
register_states = 
[| local_1, '.', '.', '.', '.'
 | local_1, '.', '.', '.', '.'
 | local_1, '.', '.', '.', '.'
 |  's(6)', '.', '.', '.', '.'
 |  's(6)', '.', '.', '.', '.'
 |  's(6)', '.', '.', '.', '.'
 |  's(6)', '.', '.', '.', '.'
 |  's(6)', '.', '.', '.', '.'
 |  's(6)', '.', '.', '.', '.'
 |  's(6)', '.', '.', '.', '.'
 |  's(6)', '.', '.', '.', '.'
 |  's(6)', '.', '.', '.', '.'
 |  's(6)', '.', '.', '.', '.'
 |  's(6)', '.', '.', '.', '.'
 |  's(6)', '.', '.', '.', '.'
 |  's(6)', '.', '.', '.', '.'
 |];
program = [O('i32.store8_0'), O('i32.load16_u_11'), S(SET1), O('i32.load16_u_8'), O('i32.sub_2'), O('i32.load16_u_13'), POP, O('i32.load16_u_1'), O('i32.sub_0'), O('i32.sub_1'), O('i32.add_0'), O('i32.store_7'), O('i32.load8_s_14'), NOP, NOP];
% time elapsed: 0.84 s
----------
value = 12;
fgas = [1, 1, 1, 1, 1, 1, 1, 1, 1, 1, 1, 1, 0, 0, 0];
fsize = [1, 1, 1, 1, 1, 1, 1, 1, 1, 1, 1, 1, 1, 1, 1];
states = 
[|   in_0, in_1, in_2, in_3, in_4, in_5, in_6, in_7, in_8, '.', '.', '.', '.', '.'
 | 's(0)', in_3, in_4, in_5, in_6, in_7, in_8,  '.',  '.', '.', '.', '.', '.', '.'
 | 's(6)', in_2, in_4, in_5, in_6, in_7, in_8,  '.',  '.', '.', '.', '.', '.', '.'
 |   in_2, in_4, in_5, in_6, in_7, in_8,  '.',  '.',  '.', '.', '.', '.', '.', '.'
 | 's(0)', in_3, in_5, in_6, in_7, in_8,  '.',  '.',  '.', '.', '.', '.', '.', '.'
 | 's(1)', in_4, in_6, in_7, in_8,  '.',  '.',  '.',  '.', '.', '.', '.', '.', '.'
 | 's(2)', in_5, in_7, in_8,  '.',  '.',  '.',  '.',  '.', '.', '.', '.', '.', '.'
 | 's(3)', in_6, in_8,  '.',  '.',  '.',  '.',  '.',  '.', '.', '.', '.', '.', '.'
 |   in_7,  '.',  '.',  '.',  '.',  '.',  '.',  '.',  '.', '.', '.', '.', '.', '.'
 | 's(4)', in_8,  '.',  '.',  '.',  '.',  '.',  '.',  '.', '.', '.', '.', '.', '.'
 | 's(5)', in_5,  '.',  '.',  '.',  '.',  '.',  '.',  '.', '.', '.', '.', '.', '.'
 | 's(7)', in_5,  '.',  '.',  '.',  '.',  '.',  '.',  '.', '.', '.', '.', '.', '.'
 | 's(8)',  '.',  '.',  '.',  '.',  '.',  '.',  '.',  '.', '.', '.', '.', '.', '.'
 | 's(8)',  '.',  '.',  '.',  '.',  '.',  '.',  '.',  '.', '.', '.', '.', '.', '.'
 | 's(8)',  '.',  '.',  '.',  '.',  '.',  '.',  '.',  '.', '.', '.', '.', '.', '.'
 | 's(8)',  '.',  '.',  '.',  '.',  '.',  '.',  '.',  '.', '.', '.', '.', '.', '.'
 |];
register_states = 
[| local_1, '.', '.', '.', '.'
 | local_1, '.', '.', '.', '.'
 | local_1, '.', '.', '.', '.'
 |  's(6)', '.', '.', '.', '.'
 |  's(6)', '.', '.', '.', '.'
 |  's(6)', '.', '.', '.', '.'
 |  's(6)', '.', '.', '.', '.'
 |  's(6)', '.', '.', '.', '.'
 |  's(6)', '.', '.', '.', '.'
 |  's(6)', '.', '.', '.', '.'
 |  's(6)', '.', '.', '.', '.'
 |  's(6)', '.', '.', '.', '.'
 |  's(6)', '.', '.', '.', '.'
 |  's(6)', '.', '.', '.', '.'
 |  's(6)', '.', '.', '.', '.'
 |  's(6)', '.', '.', '.', '.'
 |];
program = [O('i32.store8_0'), O('i32.load16_u_11'), S(SET1), O('i32.load16_u_1'), O('i32.sub_0'), O('i32.sub_1'), O('i32.add_0'), O('i32.store_7'), O('i32.load16_u_8'), O('i32.sub_2'), O('i32.load16_u_13'), O('i32.load8_s_14'), NOP, NOP, NOP];
% time elapsed: 0.86 s
----------
==========
% time elapsed: 0.89 s
% [value > 11]
